
******************************************************************************
This program contains Ipopt, a library for large-scale nonlinear optimization.
 Ipopt is released as open source code under the Eclipse Public License (EPL).
         For more information visit http://projects.coin-or.org/Ipopt
******************************************************************************

This is Ipopt version 3.13.1, running with linear solver mumps.
NOTE: Other linear solvers might be more efficient (see Ipopt documentation).

Number of nonzeros in equality constraint Jacobian...:     1087
Number of nonzeros in inequality constraint Jacobian.:      542
Number of nonzeros in Lagrangian Hessian.............:        0

Total number of variables............................:      169
                     variables with only lower bounds:        0
                variables with lower and upper bounds:      109
                     variables with only upper bounds:        0
Total number of equality constraints.................:      144
Total number of inequality constraints...............:      102
        inequality constraints with only lower bounds:      102
   inequality constraints with lower and upper bounds:        0
        inequality constraints with only upper bounds:        0

iter    objective    inf_pr   inf_du lg(mu)  ||d||  lg(rg) alpha_du alpha_pr  ls
   0  1.5000000e-01 5.00e+02 7.37e-01   0.0 0.00e+00    -  0.00e+00 0.00e+00   0
   1  1.4818498e-01 4.18e+02 3.15e+01  -0.4 9.88e+00    -  2.12e-02 1.64e-01f  1
   2  1.2547601e-01 1.81e-01 1.64e+01  -1.6 1.63e+00    -  5.27e-01 1.00e+00h  1
   3  1.3081272e-01 4.49e-02 1.75e+01  -1.5 6.20e-01    -  9.83e-01 1.00e+00h  1
   4  1.3215883e-01 3.01e-03 7.69e-02  -2.2 1.67e-01    -  9.99e-01 1.00e+00h  1
   5  1.3220216e-01 4.40e-04 3.69e-02  -3.9 1.59e-02    -  9.91e-01 1.00e+00h  1
   6  1.3126917e-01 8.05e-04 1.20e-02  -4.1 1.06e-01    -  9.99e-01 1.00e+00h  1
   7  1.3015506e-01 1.82e-03 1.63e-02  -4.6 1.50e-01    -  1.00e+00 1.00e+00h  1
   8  1.2929192e-01 6.07e-03 1.52e-02  -5.2 6.15e-01    -  1.00e+00 1.00e+00h  1
   9  1.2932988e-01 4.40e-03 1.23e-02  -4.9 5.12e-01    -  1.00e+00 1.00e+00h  1
iter    objective    inf_pr   inf_du lg(mu)  ||d||  lg(rg) alpha_du alpha_pr  ls
  10  1.2894479e-01 2.80e-03 1.07e-02  -5.4 3.77e-01    -  1.00e+00 1.00e+00h  1
  11  1.2875019e-01 1.10e-03 8.76e-03  -5.9 2.63e-01    -  1.00e+00 1.00e+00h  1
  12  1.2870084e-01 2.39e-03 8.75e-03  -6.2 2.90e-01    -  1.00e+00 1.00e+00h  1
  13  1.2851930e-01 2.22e-02 6.77e-03  -5.5 1.09e+00    -  1.00e+00 1.00e+00h  1
  14  1.2829406e-01 2.82e-02 5.52e-03 -11.0 4.27e+00    -  1.52e-01 1.54e-01h  1
  15  1.2821510e-01 1.80e-01 4.09e-03  -5.6 5.69e+00    -  3.10e-01 2.65e-01h  1
  16  1.2821709e-01 6.17e-03 1.22e-03  -6.0 3.39e-01    -  1.00e+00 8.24e-01h  1
  17  1.2820658e-01 9.99e-04 2.89e-04  -6.9 2.60e-01    -  9.72e-01 9.34e-01h  1
  18  1.2820980e-01 2.57e-04 2.05e-04  -7.1 1.39e-01    -  1.00e+00 1.00e+00h  1
  19  1.2821854e-01 3.12e-05 2.20e-04  -7.5 4.59e-02    -  1.00e+00 1.00e+00h  1
iter    objective    inf_pr   inf_du lg(mu)  ||d||  lg(rg) alpha_du alpha_pr  ls
  20  1.2821954e-01 1.62e-05 2.50e-04  -8.0 4.53e-04    -  1.00e+00 1.00e+00h  1
  21  1.2822285e-01 1.53e-06 5.10e-05  -7.4 1.82e-02    -  1.00e+00 1.00e+00h  1
  22  1.2822023e-01 1.15e-05 4.91e-06  -7.8 2.02e-02    -  1.00e+00 1.00e+00h  1
  23  1.2821960e-01 1.33e-05 5.27e-06  -7.9 2.32e-03    -  1.00e+00 1.00e+00h  1
  24  1.2822019e-01 3.09e-07 5.17e-06  -7.9 1.40e-04    -  1.00e+00 1.00e+00h  1
  25  1.2821966e-01 4.49e-07 1.70e-05  -8.5 4.63e-03    -  1.00e+00 1.00e+00h  1
  26  1.2821958e-01 1.69e-06 1.95e-07  -9.2 1.08e-03    -  1.00e+00 1.00e+00h  1
  27  1.2821964e-01 3.65e-07 3.81e-07 -10.0 2.21e-04    -  1.00e+00 1.00e+00h  1

Number of Iterations....: 27

                                   (scaled)                 (unscaled)
Objective...............:   1.2821963603221348e-01    1.2821963603221348e-01
Dual infeasibility......:   3.8115484810897598e-07    3.8115484810897598e-07
Constraint violation....:   3.6486240177890288e-07    3.6486240177890288e-07
Complementarity.........:   2.9717528834049812e-10    2.9717528834049812e-10
Overall NLP error.......:   3.8115484810897598e-07    3.8115484810897598e-07


Number of objective function evaluations             = 28
Number of objective gradient evaluations             = 28
Number of equality constraint evaluations            = 28
Number of inequality constraint evaluations          = 28
Number of equality constraint Jacobian evaluations   = 28
Number of inequality constraint Jacobian evaluations = 28
Number of Lagrangian Hessian evaluations             = 0
Total CPU secs in IPOPT (w/o function evaluations)   =      0.525
Total CPU secs in NLP function evaluations           =     10.455

EXIT: Optimal Solution Found.
